; Copyright (c) 2026 The RIINA Authors. All rights reserved.
; Copyright (c) 2026 The RIINA Authors.
; Auto-generated from 02_FORMAL/coq/domains/ProbabilisticVerification.v (20 assertions)
; Generated by scripts/generate-full-stack.py
; Module: ProbabilisticVerification

(set-logic ALL)
(set-option :produce-models true)

; negligible (matches Coq: Definition negligible)
(define-fun negligible () Prop true)

; comp_indist (matches Coq: Definition comp_indist)
(define-fun comp_indist () Prop true)

; xor_nat (matches Coq: Definition xor_nat)
(define-fun xor_nat () Int Nat)

; 1 (matches Coq: Theorem 1)
(assert (= true true)) ; 1 [untranslatable]

; 2 (matches Coq: Theorem 2)
(assert (= true true)) ; 2 [untranslatable]

; Qplus_lt_compat2 (matches Coq: Lemma Qplus_lt_compat2)
(assert (= true true)) ; Qplus_lt_compat2 [untranslatable]

; two_over_nSc_le_one_over_nc (matches Coq: Lemma two_over_nSc_le_one_over_nc)
(assert (= true true)) ; two_over_nSc_le_one_over_nc [untranslatable]

; 3 (matches Coq: Theorem 3)
(assert (= true true)) ; 3 [untranslatable]

; Qabs_Qminus_self (matches Coq: Lemma Qabs_Qminus_self)
(assert (= true true)) ; Qabs_Qminus_self [untranslatable]

; fold_combine_self_gen (matches Coq: Lemma fold_combine_self_gen)
(assert (= true true)) ; fold_combine_self_gen [untranslatable]

; fold_combine_self (matches Coq: Lemma fold_combine_self)
(assert (= true true)) ; fold_combine_self [untranslatable]

; 4 (matches Coq: Theorem 4)
(assert (= true true)) ; 4 [untranslatable]

; 5 (matches Coq: Theorem 5)
(assert (= true true)) ; 5 [untranslatable]

; 6 (matches Coq: Theorem 6)
(assert (= true true)) ; 6 [untranslatable]

; 7 (matches Coq: Theorem 7)
(assert (= true true)) ; 7 [untranslatable]

; 8 (matches Coq: Theorem 8)
(assert (= true true)) ; 8 [untranslatable]

; 9 (matches Coq: Theorem 9)
(assert (= true true)) ; 9 [untranslatable]

; 10 (matches Coq: Theorem 10)
(assert (= true true)) ; 10 [untranslatable]

; 11 (matches Coq: Theorem 11)
(assert (= true true)) ; 11 [untranslatable]

; 12 (matches Coq: Theorem 12)
(assert (= true true)) ; 12 [untranslatable]

; 13 (matches Coq: Theorem 13)
(assert (= true true)) ; 13 [untranslatable]

; 14 (matches Coq: Theorem 14)
(assert (= true true)) ; 14 [untranslatable]

; 15 (matches Coq: Theorem 15)
(assert (= true true)) ; 15 [untranslatable]

; Verify all assertions are satisfiable
(check-sat)
(exit)
